\ENCODING=ISO-8859-1
\Problem name: IloCplex

Minimize
 obj1: 90 x1 - 70 x2 + 90 x3 - 70 x4 + 90 x5 - 70 x6 + 90 x7 - 70 x8 + 90 x9
       - 70 x10 + 90 x11 - 70 x12 + 110 x13 - 90 x14 + 110 x15 - 90 x16
       + 110 x17 - 90 x18 + 110 x19 - 90 x20 + 110 x21 - 90 x22 + 125 x23
       - 105 x24 + 125 x25 - 105 x26 + 125 x27 - 105 x28 + 125 x29 - 105 x30
       + 125 x31 - 105 x32 + 125 x33 - 105 x34 + 125 x35 - 105 x36 + 110 x37
       - 90 x38 + 110 x39 - 90 x40 + 110 x41 - 90 x42 + 110 x43 - 90 x44
       + 110 x45 - 90 x46 + 110 x47 - 90 x48
Subject To
 c1:   x49 <= 250
 c2:   x50 <= 250
 c3:   x51 <= 75
 c4:   x52 <= 75
 c5:   x53 <= 300
 c6:   x54 <= 500
 c7:   x55 <= 15
 c8:   x56 <= 1
 c9:   x57 <= 1
 c10:  x1 >= 0
 c11:  x2 >= 0
 c12:  x49 >= 0
 c13:  x50 >= 0
 c14:  x54 >= 0
 c15:  x58 >= 0
 c16:  x59 >= 0
 c17:  x51 >= 0
 c18:  x52 >= 0
 c19:  x55 >= 0
 c20:  x53 >= 0
 c21:  x60 >= 0
 c22:  x56 >= 0
 c23:  x57 >= 0
 c24:  x1 - x2 - x49 + x50 - x58 - x59  = 100
 c25:  - x51 + x52 + x53  = 50
 c26:  x49 - 10000 x56 <= 0
 c27:  x50 + 10000 x56 <= 10000
 c28:  x51 - 10000 x57 <= 0
 c29:  x52 + 10000 x57 <= 10000
 c30:  x53 - 0.329499989748001 x58  = 0
 c31:  - 0.0574741171535571 x52 + x59 + 0.00319300650853095 x60  = 0
 c32:  x60 >= 0
 c33:  - 15 x52 - 75 x55 + x60 >= -1125
 c34:  - 75 x55 + x60 <= 0
 c35:  - 15 x52 + x60 <= 0
 c36:  - 0.949999988079071 x49 + 1.05263159215615 x50 + x54 - x61  = 0
 c37:  - 0.0990000009536743 x51 + 0.101010104902252 x52 + x55 - x62  = 0
 c38:  x63 <= 250
 c39:  x64 <= 250
 c40:  x65 <= 75
 c41:  x66 <= 75
 c42:  x67 <= 300
 c43:  x68 <= 500
 c44:  x69 <= 15
 c45:  x70 <= 1
 c46:  x71 <= 1
 c47:  x3 >= 0
 c48:  x4 >= 0
 c49:  x63 >= 0
 c50:  x64 >= 0
 c51:  x68 >= 0
 c52:  x72 >= 0
 c53:  x73 >= 0
 c54:  x65 >= 0
 c55:  x66 >= 0
 c56:  x69 >= 0
 c57:  x67 >= 0
 c58:  x74 >= 0
 c59:  x70 >= 0
 c60:  x71 >= 0
 c61:  x3 - x4 - x63 + x64 - x72 - x73  = 100
 c62:  - x65 + x66 + x67  = 50
 c63:  x63 - 10000 x70 <= 0
 c64:  x64 + 10000 x70 <= 10000
 c65:  x65 - 10000 x71 <= 0
 c66:  x66 + 10000 x71 <= 10000
 c67:  x67 - 0.329499989748001 x72  = 0
 c68:  - 0.0574741171535571 x66 + x73 + 0.00319300650853095 x74  = 0
 c69:  x74 >= 0
 c70:  - 15 x66 - 75 x69 + x74 >= -1125
 c71:  - 75 x69 + x74 <= 0
 c72:  - 15 x66 + x74 <= 0
 c73:  - x54 - 0.949999988079071 x63 + 1.05263159215615 x64 + x68  = 0
 c74:  - x55 - 0.0990000009536743 x65 + 0.101010104902252 x66 + x69  = 0
 c75:  x75 <= 250
 c76:  x76 <= 250
 c77:  x77 <= 75
 c78:  x78 <= 75
 c79:  x79 <= 300
 c80:  x80 <= 500
 c81:  x81 <= 15
 c82:  x82 <= 1
 c83:  x83 <= 1
 c84:  x5 >= 0
 c85:  x6 >= 0
 c86:  x75 >= 0
 c87:  x76 >= 0
 c88:  x80 >= 0
 c89:  x84 >= 0
 c90:  x85 >= 0
 c91:  x77 >= 0
 c92:  x78 >= 0
 c93:  x81 >= 0
 c94:  x79 >= 0
 c95:  x86 >= 0
 c96:  x82 >= 0
 c97:  x83 >= 0
 c98:  x5 - x6 - x75 + x76 - x84 - x85  = 100
 c99:  - x77 + x78 + x79  = 80
 c100: x75 - 10000 x82 <= 0
 c101: x76 + 10000 x82 <= 10000
 c102: x77 - 10000 x83 <= 0
 c103: x78 + 10000 x83 <= 10000
 c104: x79 - 0.329499989748001 x84  = 0
 c105: - 0.0574741171535571 x78 + x85 + 0.00319300650853095 x86  = 0
 c106: x86 >= 0
 c107: - 15 x78 - 75 x81 + x86 >= -1125
 c108: - 75 x81 + x86 <= 0
 c109: - 15 x78 + x86 <= 0
 c110: - x68 - 0.949999988079071 x75 + 1.05263159215615 x76 + x80  = 0
 c111: - x69 - 0.0990000009536743 x77 + 0.101010104902252 x78 + x81  = 0
 c112: x87 <= 250
 c113: x88 <= 250
 c114: x89 <= 75
 c115: x90 <= 75
 c116: x91 <= 300
 c117: x92 <= 500
 c118: x93 <= 15
 c119: x94 <= 1
 c120: x95 <= 1
 c121: x7 >= 0
 c122: x8 >= 0
 c123: x87 >= 0
 c124: x88 >= 0
 c125: x92 >= 0
 c126: x96 >= 0
 c127: x97 >= 0
 c128: x89 >= 0
 c129: x90 >= 0
 c130: x93 >= 0
 c131: x91 >= 0
 c132: x98 >= 0
 c133: x94 >= 0
 c134: x95 >= 0
 c135: x7 - x8 - x87 + x88 - x96 - x97  = 100
 c136: - x89 + x90 + x91  = 80
 c137: x87 - 10000 x94 <= 0
 c138: x88 + 10000 x94 <= 10000
 c139: x89 - 10000 x95 <= 0
 c140: x90 + 10000 x95 <= 10000
 c141: x91 - 0.329499989748001 x96  = 0
 c142: - 0.0574741171535571 x90 + x97 + 0.00319300650853095 x98  = 0
 c143: x98 >= 0
 c144: - 15 x90 - 75 x93 + x98 >= -1125
 c145: - 75 x93 + x98 <= 0
 c146: - 15 x90 + x98 <= 0
 c147: - x80 - 0.949999988079071 x87 + 1.05263159215615 x88 + x92  = 0
 c148: - x81 - 0.0990000009536743 x89 + 0.101010104902252 x90 + x93  = 0
 c149: x99 <= 250
 c150: x100 <= 250
 c151: x101 <= 75
 c152: x102 <= 75
 c153: x103 <= 300
 c154: x104 <= 500
 c155: x105 <= 15
 c156: x106 <= 1
 c157: x107 <= 1
 c158: x9 >= 0
 c159: x10 >= 0
 c160: x99 >= 0
 c161: x100 >= 0
 c162: x104 >= 0
 c163: x108 >= 0
 c164: x109 >= 0
 c165: x101 >= 0
 c166: x102 >= 0
 c167: x105 >= 0
 c168: x103 >= 0
 c169: x110 >= 0
 c170: x106 >= 0
 c171: x107 >= 0
 c172: x9 - x10 - x99 + x100 - x108 - x109  = 100
 c173: - x101 + x102 + x103  = 90
 c174: x99 - 10000 x106 <= 0
 c175: x100 + 10000 x106 <= 10000
 c176: x101 - 10000 x107 <= 0
 c177: x102 + 10000 x107 <= 10000
 c178: x103 - 0.329499989748001 x108  = 0
 c179: - 0.0574741171535571 x102 + x109 + 0.00319300650853095 x110  = 0
 c180: x110 >= 0
 c181: - 15 x102 - 75 x105 + x110 >= -1125
 c182: - 75 x105 + x110 <= 0
 c183: - 15 x102 + x110 <= 0
 c184: - x92 - 0.949999988079071 x99 + 1.05263159215615 x100 + x104  = 0
 c185: - x93 - 0.0990000009536743 x101 + 0.101010104902252 x102 + x105  = 0
 c186: x111 <= 250
 c187: x112 <= 250
 c188: x113 <= 75
 c189: x114 <= 75
 c190: x115 <= 300
 c191: x116 <= 500
 c192: x117 <= 15
 c193: x118 <= 1
 c194: x119 <= 1
 c195: x11 >= 0
 c196: x12 >= 0
 c197: x111 >= 0
 c198: x112 >= 0
 c199: x116 >= 0
 c200: x120 >= 0
 c201: x121 >= 0
 c202: x113 >= 0
 c203: x114 >= 0
 c204: x117 >= 0
 c205: x115 >= 0
 c206: x122 >= 0
 c207: x118 >= 0
 c208: x119 >= 0
 c209: x11 - x12 - x111 + x112 - x120 - x121  = 100
 c210: - x113 + x114 + x115  = 90
 c211: x111 - 10000 x118 <= 0
 c212: x112 + 10000 x118 <= 10000
 c213: x113 - 10000 x119 <= 0
 c214: x114 + 10000 x119 <= 10000
 c215: x115 - 0.329499989748001 x120  = 0
 c216: - 0.0574741171535571 x114 + x121 + 0.00319300650853095 x122  = 0
 c217: x122 >= 0
 c218: - 15 x114 - 75 x117 + x122 >= -1125
 c219: - 75 x117 + x122 <= 0
 c220: - 15 x114 + x122 <= 0
 c221: - x104 - 0.949999988079071 x111 + 1.05263159215615 x112 + x116  = 0
 c222: - x105 - 0.0990000009536743 x113 + 0.101010104902252 x114 + x117  = 0
 c223: x123 <= 250
 c224: x124 <= 250
 c225: x125 <= 75
 c226: x126 <= 75
 c227: x127 <= 300
 c228: x128 <= 500
 c229: x129 <= 15
 c230: x130 <= 1
 c231: x131 <= 1
 c232: x13 >= 0
 c233: x14 >= 0
 c234: x123 >= 0
 c235: x124 >= 0
 c236: x128 >= 0
 c237: x132 >= 0
 c238: x133 >= 0
 c239: x125 >= 0
 c240: x126 >= 0
 c241: x129 >= 0
 c242: x127 >= 0
 c243: x134 >= 0
 c244: x130 >= 0
 c245: x131 >= 0
 c246: x13 - x14 - x123 + x124 - x132 - x133  = 100
 c247: - x125 + x126 + x127  = 90
 c248: x123 - 10000 x130 <= 0
 c249: x124 + 10000 x130 <= 10000
 c250: x125 - 10000 x131 <= 0
 c251: x126 + 10000 x131 <= 10000
 c252: x127 - 0.329499989748001 x132  = 0
 c253: - 0.0574741171535571 x126 + x133 + 0.00319300650853095 x134  = 0
 c254: x134 >= 0
 c255: - 15 x126 - 75 x129 + x134 >= -1125
 c256: - 75 x129 + x134 <= 0
 c257: - 15 x126 + x134 <= 0
 c258: - x116 - 0.949999988079071 x123 + 1.05263159215615 x124 + x128  = 0
 c259: - x117 - 0.0990000009536743 x125 + 0.101010104902252 x126 + x129  = 0
 c260: x135 <= 250
 c261: x136 <= 250
 c262: x137 <= 75
 c263: x138 <= 75
 c264: x139 <= 300
 c265: x140 <= 500
 c266: x141 <= 15
 c267: x142 <= 1
 c268: x143 <= 1
 c269: x15 >= 0
 c270: x16 >= 0
 c271: x135 >= 0
 c272: x136 >= 0
 c273: x140 >= 0
 c274: x144 >= 0
 c275: x145 >= 0
 c276: x137 >= 0
 c277: x138 >= 0
 c278: x141 >= 0
 c279: x139 >= 0
 c280: x146 >= 0
 c281: x142 >= 0
 c282: x143 >= 0
 c283: x15 - x16 - x135 + x136 - x144 - x145  = 100
 c284: - x137 + x138 + x139  = 100
 c285: x135 - 10000 x142 <= 0
 c286: x136 + 10000 x142 <= 10000
 c287: x137 - 10000 x143 <= 0
 c288: x138 + 10000 x143 <= 10000
 c289: x139 - 0.329499989748001 x144  = 0
 c290: - 0.0574741171535571 x138 + x145 + 0.00319300650853095 x146  = 0
 c291: x146 >= 0
 c292: - 15 x138 - 75 x141 + x146 >= -1125
 c293: - 75 x141 + x146 <= 0
 c294: - 15 x138 + x146 <= 0
 c295: - x128 - 0.949999988079071 x135 + 1.05263159215615 x136 + x140  = 0
 c296: - x129 - 0.0990000009536743 x137 + 0.101010104902252 x138 + x141  = 0
 c297: x147 <= 250
 c298: x148 <= 250
 c299: x149 <= 75
 c300: x150 <= 75
 c301: x151 <= 300
 c302: x152 <= 500
 c303: x153 <= 15
 c304: x154 <= 1
 c305: x155 <= 1
 c306: x17 >= 0
 c307: x18 >= 0
 c308: x147 >= 0
 c309: x148 >= 0
 c310: x152 >= 0
 c311: x156 >= 0
 c312: x157 >= 0
 c313: x149 >= 0
 c314: x150 >= 0
 c315: x153 >= 0
 c316: x151 >= 0
 c317: x158 >= 0
 c318: x154 >= 0
 c319: x155 >= 0
 c320: x17 - x18 - x147 + x148 - x156 - x157  = 100
 c321: - x149 + x150 + x151  = 100
 c322: x147 - 10000 x154 <= 0
 c323: x148 + 10000 x154 <= 10000
 c324: x149 - 10000 x155 <= 0
 c325: x150 + 10000 x155 <= 10000
 c326: x151 - 0.329499989748001 x156  = 0
 c327: - 0.0574741171535571 x150 + x157 + 0.00319300650853095 x158  = 0
 c328: x158 >= 0
 c329: - 15 x150 - 75 x153 + x158 >= -1125
 c330: - 75 x153 + x158 <= 0
 c331: - 15 x150 + x158 <= 0
 c332: - x140 - 0.949999988079071 x147 + 1.05263159215615 x148 + x152  = 0
 c333: - x141 - 0.0990000009536743 x149 + 0.101010104902252 x150 + x153  = 0
 c334: x159 <= 250
 c335: x160 <= 250
 c336: x161 <= 75
 c337: x162 <= 75
 c338: x163 <= 300
 c339: x164 <= 500
 c340: x165 <= 15
 c341: x166 <= 1
 c342: x167 <= 1
 c343: x19 >= 0
 c344: x20 >= 0
 c345: x159 >= 0
 c346: x160 >= 0
 c347: x164 >= 0
 c348: x168 >= 0
 c349: x169 >= 0
 c350: x161 >= 0
 c351: x162 >= 0
 c352: x165 >= 0
 c353: x163 >= 0
 c354: x170 >= 0
 c355: x166 >= 0
 c356: x167 >= 0
 c357: x19 - x20 - x159 + x160 - x168 - x169  = 100
 c358: - x161 + x162 + x163  = 100
 c359: x159 - 10000 x166 <= 0
 c360: x160 + 10000 x166 <= 10000
 c361: x161 - 10000 x167 <= 0
 c362: x162 + 10000 x167 <= 10000
 c363: x163 - 0.329499989748001 x168  = 0
 c364: - 0.0574741171535571 x162 + x169 + 0.00319300650853095 x170  = 0
 c365: x170 >= 0
 c366: - 15 x162 - 75 x165 + x170 >= -1125
 c367: - 75 x165 + x170 <= 0
 c368: - 15 x162 + x170 <= 0
 c369: - x152 - 0.949999988079071 x159 + 1.05263159215615 x160 + x164  = 0
 c370: - x153 - 0.0990000009536743 x161 + 0.101010104902252 x162 + x165  = 0
 c371: x171 <= 250
 c372: x172 <= 250
 c373: x173 <= 75
 c374: x174 <= 75
 c375: x175 <= 300
 c376: x176 <= 500
 c377: x177 <= 15
 c378: x178 <= 1
 c379: x179 <= 1
 c380: x21 >= 0
 c381: x22 >= 0
 c382: x171 >= 0
 c383: x172 >= 0
 c384: x176 >= 0
 c385: x180 >= 0
 c386: x181 >= 0
 c387: x173 >= 0
 c388: x174 >= 0
 c389: x177 >= 0
 c390: x175 >= 0
 c391: x182 >= 0
 c392: x178 >= 0
 c393: x179 >= 0
 c394: x21 - x22 - x171 + x172 - x180 - x181  = 150
 c395: - x173 + x174 + x175  = 120
 c396: x171 - 10000 x178 <= 0
 c397: x172 + 10000 x178 <= 10000
 c398: x173 - 10000 x179 <= 0
 c399: x174 + 10000 x179 <= 10000
 c400: x175 - 0.329499989748001 x180  = 0
 c401: - 0.0574741171535571 x174 + x181 + 0.00319300650853095 x182  = 0
 c402: x182 >= 0
 c403: - 15 x174 - 75 x177 + x182 >= -1125
 c404: - 75 x177 + x182 <= 0
 c405: - 15 x174 + x182 <= 0
 c406: - x164 - 0.949999988079071 x171 + 1.05263159215615 x172 + x176  = 0
 c407: - x165 - 0.0990000009536743 x173 + 0.101010104902252 x174 + x177  = 0
 c408: x183 <= 250
 c409: x184 <= 250
 c410: x185 <= 75
 c411: x186 <= 75
 c412: x187 <= 300
 c413: x188 <= 500
 c414: x189 <= 15
 c415: x190 <= 1
 c416: x191 <= 1
 c417: x23 >= 0
 c418: x24 >= 0
 c419: x183 >= 0
 c420: x184 >= 0
 c421: x188 >= 0
 c422: x192 >= 0
 c423: x193 >= 0
 c424: x185 >= 0
 c425: x186 >= 0
 c426: x189 >= 0
 c427: x187 >= 0
 c428: x194 >= 0
 c429: x190 >= 0
 c430: x191 >= 0
 c431: x23 - x24 - x183 + x184 - x192 - x193  = 150
 c432: - x185 + x186 + x187  = 120
 c433: x183 - 10000 x190 <= 0
 c434: x184 + 10000 x190 <= 10000
 c435: x185 - 10000 x191 <= 0
 c436: x186 + 10000 x191 <= 10000
 c437: x187 - 0.329499989748001 x192  = 0
 c438: - 0.0574741171535571 x186 + x193 + 0.00319300650853095 x194  = 0
 c439: x194 >= 0
 c440: - 15 x186 - 75 x189 + x194 >= -1125
 c441: - 75 x189 + x194 <= 0
 c442: - 15 x186 + x194 <= 0
 c443: - x176 - 0.949999988079071 x183 + 1.05263159215615 x184 + x188  = 0
 c444: - x177 - 0.0990000009536743 x185 + 0.101010104902252 x186 + x189  = 0
 c445: x195 <= 250
 c446: x196 <= 250
 c447: x197 <= 75
 c448: x198 <= 75
 c449: x199 <= 300
 c450: x200 <= 500
 c451: x201 <= 15
 c452: x202 <= 1
 c453: x203 <= 1
 c454: x25 >= 0
 c455: x26 >= 0
 c456: x195 >= 0
 c457: x196 >= 0
 c458: x200 >= 0
 c459: x204 >= 0
 c460: x205 >= 0
 c461: x197 >= 0
 c462: x198 >= 0
 c463: x201 >= 0
 c464: x199 >= 0
 c465: x206 >= 0
 c466: x202 >= 0
 c467: x203 >= 0
 c468: x25 - x26 - x195 + x196 - x204 - x205  = 150
 c469: - x197 + x198 + x199  = 120
 c470: x195 - 10000 x202 <= 0
 c471: x196 + 10000 x202 <= 10000
 c472: x197 - 10000 x203 <= 0
 c473: x198 + 10000 x203 <= 10000
 c474: x199 - 0.329499989748001 x204  = 0
 c475: - 0.0574741171535571 x198 + x205 + 0.00319300650853095 x206  = 0
 c476: x206 >= 0
 c477: - 15 x198 - 75 x201 + x206 >= -1125
 c478: - 75 x201 + x206 <= 0
 c479: - 15 x198 + x206 <= 0
 c480: - x188 - 0.949999988079071 x195 + 1.05263159215615 x196 + x200  = 0
 c481: - x189 - 0.0990000009536743 x197 + 0.101010104902252 x198 + x201  = 0
 c482: x207 <= 250
 c483: x208 <= 250
 c484: x209 <= 75
 c485: x210 <= 75
 c486: x211 <= 300
 c487: x212 <= 500
 c488: x213 <= 15
 c489: x214 <= 1
 c490: x215 <= 1
 c491: x27 >= 0
 c492: x28 >= 0
 c493: x207 >= 0
 c494: x208 >= 0
 c495: x212 >= 0
 c496: x216 >= 0
 c497: x217 >= 0
 c498: x209 >= 0
 c499: x210 >= 0
 c500: x213 >= 0
 c501: x211 >= 0
 c502: x218 >= 0
 c503: x214 >= 0
 c504: x215 >= 0
 c505: x27 - x28 - x207 + x208 - x216 - x217  = 150
 c506: - x209 + x210 + x211  = 120
 c507: x207 - 10000 x214 <= 0
 c508: x208 + 10000 x214 <= 10000
 c509: x209 - 10000 x215 <= 0
 c510: x210 + 10000 x215 <= 10000
 c511: x211 - 0.329499989748001 x216  = 0
 c512: - 0.0574741171535571 x210 + x217 + 0.00319300650853095 x218  = 0
 c513: x218 >= 0
 c514: - 15 x210 - 75 x213 + x218 >= -1125
 c515: - 75 x213 + x218 <= 0
 c516: - 15 x210 + x218 <= 0
 c517: - x200 - 0.949999988079071 x207 + 1.05263159215615 x208 + x212  = 0
 c518: - x201 - 0.0990000009536743 x209 + 0.101010104902252 x210 + x213  = 0
 c519: x219 <= 250
 c520: x220 <= 250
 c521: x221 <= 75
 c522: x222 <= 75
 c523: x223 <= 300
 c524: x224 <= 500
 c525: x225 <= 15
 c526: x226 <= 1
 c527: x227 <= 1
 c528: x29 >= 0
 c529: x30 >= 0
 c530: x219 >= 0
 c531: x220 >= 0
 c532: x224 >= 0
 c533: x228 >= 0
 c534: x229 >= 0
 c535: x221 >= 0
 c536: x222 >= 0
 c537: x225 >= 0
 c538: x223 >= 0
 c539: x230 >= 0
 c540: x226 >= 0
 c541: x227 >= 0
 c542: x29 - x30 - x219 + x220 - x228 - x229  = 150
 c543: - x221 + x222 + x223  = 120
 c544: x219 - 10000 x226 <= 0
 c545: x220 + 10000 x226 <= 10000
 c546: x221 - 10000 x227 <= 0
 c547: x222 + 10000 x227 <= 10000
 c548: x223 - 0.329499989748001 x228  = 0
 c549: - 0.0574741171535571 x222 + x229 + 0.00319300650853095 x230  = 0
 c550: x230 >= 0
 c551: - 15 x222 - 75 x225 + x230 >= -1125
 c552: - 75 x225 + x230 <= 0
 c553: - 15 x222 + x230 <= 0
 c554: - x212 - 0.949999988079071 x219 + 1.05263159215615 x220 + x224  = 0
 c555: - x213 - 0.0990000009536743 x221 + 0.101010104902252 x222 + x225  = 0
 c556: x231 <= 250
 c557: x232 <= 250
 c558: x233 <= 75
 c559: x234 <= 75
 c560: x235 <= 300
 c561: x236 <= 500
 c562: x237 <= 15
 c563: x238 <= 1
 c564: x239 <= 1
 c565: x31 >= 0
 c566: x32 >= 0
 c567: x231 >= 0
 c568: x232 >= 0
 c569: x236 >= 0
 c570: x240 >= 0
 c571: x241 >= 0
 c572: x233 >= 0
 c573: x234 >= 0
 c574: x237 >= 0
 c575: x235 >= 0
 c576: x242 >= 0
 c577: x238 >= 0
 c578: x239 >= 0
 c579: x31 - x32 - x231 + x232 - x240 - x241  = 150
 c580: - x233 + x234 + x235  = 120
 c581: x231 - 10000 x238 <= 0
 c582: x232 + 10000 x238 <= 10000
 c583: x233 - 10000 x239 <= 0
 c584: x234 + 10000 x239 <= 10000
 c585: x235 - 0.329499989748001 x240  = 0
 c586: - 0.0574741171535571 x234 + x241 + 0.00319300650853095 x242  = 0
 c587: x242 >= 0
 c588: - 15 x234 - 75 x237 + x242 >= -1125
 c589: - 75 x237 + x242 <= 0
 c590: - 15 x234 + x242 <= 0
 c591: - x224 - 0.949999988079071 x231 + 1.05263159215615 x232 + x236  = 0
 c592: - x225 - 0.0990000009536743 x233 + 0.101010104902252 x234 + x237  = 0
 c593: x243 <= 250
 c594: x244 <= 250
 c595: x245 <= 75
 c596: x246 <= 75
 c597: x247 <= 300
 c598: x248 <= 500
 c599: x249 <= 15
 c600: x250 <= 1
 c601: x251 <= 1
 c602: x33 >= 0
 c603: x34 >= 0
 c604: x243 >= 0
 c605: x244 >= 0
 c606: x248 >= 0
 c607: x252 >= 0
 c608: x253 >= 0
 c609: x245 >= 0
 c610: x246 >= 0
 c611: x249 >= 0
 c612: x247 >= 0
 c613: x254 >= 0
 c614: x250 >= 0
 c615: x251 >= 0
 c616: x33 - x34 - x243 + x244 - x252 - x253  = 150
 c617: - x245 + x246 + x247  = 120
 c618: x243 - 10000 x250 <= 0
 c619: x244 + 10000 x250 <= 10000
 c620: x245 - 10000 x251 <= 0
 c621: x246 + 10000 x251 <= 10000
 c622: x247 - 0.329499989748001 x252  = 0
 c623: - 0.0574741171535571 x246 + x253 + 0.00319300650853095 x254  = 0
 c624: x254 >= 0
 c625: - 15 x246 - 75 x249 + x254 >= -1125
 c626: - 75 x249 + x254 <= 0
 c627: - 15 x246 + x254 <= 0
 c628: - x236 - 0.949999988079071 x243 + 1.05263159215615 x244 + x248  = 0
 c629: - x237 - 0.0990000009536743 x245 + 0.101010104902252 x246 + x249  = 0
 c630: x255 <= 250
 c631: x256 <= 250
 c632: x257 <= 75
 c633: x258 <= 75
 c634: x259 <= 300
 c635: x260 <= 500
 c636: x261 <= 15
 c637: x262 <= 1
 c638: x263 <= 1
 c639: x35 >= 0
 c640: x36 >= 0
 c641: x255 >= 0
 c642: x256 >= 0
 c643: x260 >= 0
 c644: x264 >= 0
 c645: x265 >= 0
 c646: x257 >= 0
 c647: x258 >= 0
 c648: x261 >= 0
 c649: x259 >= 0
 c650: x266 >= 0
 c651: x262 >= 0
 c652: x263 >= 0
 c653: x35 - x36 - x255 + x256 - x264 - x265  = 150
 c654: - x257 + x258 + x259  = 50
 c655: x255 - 10000 x262 <= 0
 c656: x256 + 10000 x262 <= 10000
 c657: x257 - 10000 x263 <= 0
 c658: x258 + 10000 x263 <= 10000
 c659: x259 - 0.329499989748001 x264  = 0
 c660: - 0.0574741171535571 x258 + x265 + 0.00319300650853095 x266  = 0
 c661: x266 >= 0
 c662: - 15 x258 - 75 x261 + x266 >= -1125
 c663: - 75 x261 + x266 <= 0
 c664: - 15 x258 + x266 <= 0
 c665: - x248 - 0.949999988079071 x255 + 1.05263159215615 x256 + x260  = 0
 c666: - x249 - 0.0990000009536743 x257 + 0.101010104902252 x258 + x261  = 0
 c667: x267 <= 250
 c668: x268 <= 250
 c669: x269 <= 75
 c670: x270 <= 75
 c671: x271 <= 300
 c672: x272 <= 500
 c673: x273 <= 15
 c674: x274 <= 1
 c675: x275 <= 1
 c676: x37 >= 0
 c677: x38 >= 0
 c678: x267 >= 0
 c679: x268 >= 0
 c680: x272 >= 0
 c681: x276 >= 0
 c682: x277 >= 0
 c683: x269 >= 0
 c684: x270 >= 0
 c685: x273 >= 0
 c686: x271 >= 0
 c687: x278 >= 0
 c688: x274 >= 0
 c689: x275 >= 0
 c690: x37 - x38 - x267 + x268 - x276 - x277  = 100
 c691: - x269 + x270 + x271  = 50
 c692: x267 - 10000 x274 <= 0
 c693: x268 + 10000 x274 <= 10000
 c694: x269 - 10000 x275 <= 0
 c695: x270 + 10000 x275 <= 10000
 c696: x271 - 0.329499989748001 x276  = 0
 c697: - 0.0574741171535571 x270 + x277 + 0.00319300650853095 x278  = 0
 c698: x278 >= 0
 c699: - 15 x270 - 75 x273 + x278 >= -1125
 c700: - 75 x273 + x278 <= 0
 c701: - 15 x270 + x278 <= 0
 c702: - x260 - 0.949999988079071 x267 + 1.05263159215615 x268 + x272  = 0
 c703: - x261 - 0.0990000009536743 x269 + 0.101010104902252 x270 + x273  = 0
 c704: x279 <= 250
 c705: x280 <= 250
 c706: x281 <= 75
 c707: x282 <= 75
 c708: x283 <= 300
 c709: x284 <= 500
 c710: x285 <= 15
 c711: x286 <= 1
 c712: x287 <= 1
 c713: x39 >= 0
 c714: x40 >= 0
 c715: x279 >= 0
 c716: x280 >= 0
 c717: x284 >= 0
 c718: x288 >= 0
 c719: x289 >= 0
 c720: x281 >= 0
 c721: x282 >= 0
 c722: x285 >= 0
 c723: x283 >= 0
 c724: x290 >= 0
 c725: x286 >= 0
 c726: x287 >= 0
 c727: x39 - x40 - x279 + x280 - x288 - x289  = 100
 c728: - x281 + x282 + x283  = 80
 c729: x279 - 10000 x286 <= 0
 c730: x280 + 10000 x286 <= 10000
 c731: x281 - 10000 x287 <= 0
 c732: x282 + 10000 x287 <= 10000
 c733: x283 - 0.329499989748001 x288  = 0
 c734: - 0.0574741171535571 x282 + x289 + 0.00319300650853095 x290  = 0
 c735: x290 >= 0
 c736: - 15 x282 - 75 x285 + x290 >= -1125
 c737: - 75 x285 + x290 <= 0
 c738: - 15 x282 + x290 <= 0
 c739: - x272 - 0.949999988079071 x279 + 1.05263159215615 x280 + x284  = 0
 c740: - x273 - 0.0990000009536743 x281 + 0.101010104902252 x282 + x285  = 0
 c741: x291 <= 250
 c742: x292 <= 250
 c743: x293 <= 75
 c744: x294 <= 75
 c745: x295 <= 300
 c746: x296 <= 500
 c747: x297 <= 15
 c748: x298 <= 1
 c749: x299 <= 1
 c750: x41 >= 0
 c751: x42 >= 0
 c752: x291 >= 0
 c753: x292 >= 0
 c754: x296 >= 0
 c755: x300 >= 0
 c756: x301 >= 0
 c757: x293 >= 0
 c758: x294 >= 0
 c759: x297 >= 0
 c760: x295 >= 0
 c761: x302 >= 0
 c762: x298 >= 0
 c763: x299 >= 0
 c764: x41 - x42 - x291 + x292 - x300 - x301  = 100
 c765: - x293 + x294 + x295  = 80
 c766: x291 - 10000 x298 <= 0
 c767: x292 + 10000 x298 <= 10000
 c768: x293 - 10000 x299 <= 0
 c769: x294 + 10000 x299 <= 10000
 c770: x295 - 0.329499989748001 x300  = 0
 c771: - 0.0574741171535571 x294 + x301 + 0.00319300650853095 x302  = 0
 c772: x302 >= 0
 c773: - 15 x294 - 75 x297 + x302 >= -1125
 c774: - 75 x297 + x302 <= 0
 c775: - 15 x294 + x302 <= 0
 c776: - x284 - 0.949999988079071 x291 + 1.05263159215615 x292 + x296  = 0
 c777: - x285 - 0.0990000009536743 x293 + 0.101010104902252 x294 + x297  = 0
 c778: x303 <= 250
 c779: x304 <= 250
 c780: x305 <= 75
 c781: x306 <= 75
 c782: x307 <= 300
 c783: x308 <= 500
 c784: x309 <= 15
 c785: x310 <= 1
 c786: x311 <= 1
 c787: x43 >= 0
 c788: x44 >= 0
 c789: x303 >= 0
 c790: x304 >= 0
 c791: x308 >= 0
 c792: x312 >= 0
 c793: x313 >= 0
 c794: x305 >= 0
 c795: x306 >= 0
 c796: x309 >= 0
 c797: x307 >= 0
 c798: x314 >= 0
 c799: x310 >= 0
 c800: x311 >= 0
 c801: x43 - x44 - x303 + x304 - x312 - x313  = 100
 c802: - x305 + x306 + x307  = 90
 c803: x303 - 10000 x310 <= 0
 c804: x304 + 10000 x310 <= 10000
 c805: x305 - 10000 x311 <= 0
 c806: x306 + 10000 x311 <= 10000
 c807: x307 - 0.329499989748001 x312  = 0
 c808: - 0.0574741171535571 x306 + x313 + 0.00319300650853095 x314  = 0
 c809: x314 >= 0
 c810: - 15 x306 - 75 x309 + x314 >= -1125
 c811: - 75 x309 + x314 <= 0
 c812: - 15 x306 + x314 <= 0
 c813: - x296 - 0.949999988079071 x303 + 1.05263159215615 x304 + x308  = 0
 c814: - x297 - 0.0990000009536743 x305 + 0.101010104902252 x306 + x309  = 0
 c815: x315 <= 250
 c816: x316 <= 250
 c817: x317 <= 75
 c818: x318 <= 75
 c819: x319 <= 300
 c820: x320 <= 500
 c821: x321 <= 15
 c822: x322 <= 1
 c823: x323 <= 1
 c824: x45 >= 0
 c825: x46 >= 0
 c826: x315 >= 0
 c827: x316 >= 0
 c828: x320 >= 0
 c829: x324 >= 0
 c830: x325 >= 0
 c831: x317 >= 0
 c832: x318 >= 0
 c833: x321 >= 0
 c834: x319 >= 0
 c835: x326 >= 0
 c836: x322 >= 0
 c837: x323 >= 0
 c838: x45 - x46 - x315 + x316 - x324 - x325  = 100
 c839: - x317 + x318 + x319  = 90
 c840: x315 - 10000 x322 <= 0
 c841: x316 + 10000 x322 <= 10000
 c842: x317 - 10000 x323 <= 0
 c843: x318 + 10000 x323 <= 10000
 c844: x319 - 0.329499989748001 x324  = 0
 c845: - 0.0574741171535571 x318 + x325 + 0.00319300650853095 x326  = 0
 c846: x326 >= 0
 c847: - 15 x318 - 75 x321 + x326 >= -1125
 c848: - 75 x321 + x326 <= 0
 c849: - 15 x318 + x326 <= 0
 c850: - x308 - 0.949999988079071 x315 + 1.05263159215615 x316 + x320  = 0
 c851: - x309 - 0.0990000009536743 x317 + 0.101010104902252 x318 + x321  = 0
 c852: x327 <= 250
 c853: x328 <= 250
 c854: x329 <= 75
 c855: x330 <= 75
 c856: x331 <= 300
 c857: x61 <= 500
 c858: x62 <= 15
 c859: x332 <= 1
 c860: x333 <= 1
 c861: x47 >= 0
 c862: x48 >= 0
 c863: x327 >= 0
 c864: x328 >= 0
 c865: x61 >= 0
 c866: x334 >= 0
 c867: x335 >= 0
 c868: x329 >= 0
 c869: x330 >= 0
 c870: x62 >= 0
 c871: x331 >= 0
 c872: x336 >= 0
 c873: x332 >= 0
 c874: x333 >= 0
 c875: x47 - x48 - x327 + x328 - x334 - x335  = 100
 c876: - x329 + x330 + x331  = 90
 c877: x327 - 10000 x332 <= 0
 c878: x328 + 10000 x332 <= 10000
 c879: x329 - 10000 x333 <= 0
 c880: x330 + 10000 x333 <= 10000
 c881: x331 - 0.329499989748001 x334  = 0
 c882: - 0.0574741171535571 x330 + x335 + 0.00319300650853095 x336  = 0
 c883: x336 >= 0
 c884: - 75 x62 - 15 x330 + x336 >= -1125
 c885: - 75 x62 + x336 <= 0
 c886: - 15 x330 + x336 <= 0
 c887: x61 - x320 - 0.949999988079071 x327 + 1.05263159215615 x328  = 0
 c888: x62 - x321 - 0.0990000009536743 x329 + 0.101010104902252 x330  = 0
Bounds
      x56 >= 0
      x57 >= 0
      x70 >= 0
      x71 >= 0
      x82 >= 0
      x83 >= 0
      x94 >= 0
      x95 >= 0
      x106 >= 0
      x107 >= 0
      x118 >= 0
      x119 >= 0
      x130 >= 0
      x131 >= 0
      x142 >= 0
      x143 >= 0
      x154 >= 0
      x155 >= 0
      x166 >= 0
      x167 >= 0
      x178 >= 0
      x179 >= 0
      x190 >= 0
      x191 >= 0
      x202 >= 0
      x203 >= 0
      x214 >= 0
      x215 >= 0
      x226 >= 0
      x227 >= 0
      x238 >= 0
      x239 >= 0
      x250 >= 0
      x251 >= 0
      x262 >= 0
      x263 >= 0
      x274 >= 0
      x275 >= 0
      x286 >= 0
      x287 >= 0
      x298 >= 0
      x299 >= 0
      x310 >= 0
      x311 >= 0
      x322 >= 0
      x323 >= 0
      x332 >= 0
      x333 >= 0
Generals
 x56  x57  x70  x71  x82  x83  x94  x95  x106  x107  x118  x119  x130  x131 
 x142  x143  x154  x155  x166  x167  x178  x179  x190  x191  x202  x203  x214 
 x215  x226  x227  x238  x239  x250  x251  x262  x263  x274  x275  x286  x287 
 x298  x299  x310  x311  x322  x323  x332  x333 
End
